\Problem name: JNICPLEX.lp

Minimize
 obj: 47.8 x0 + 42.24 x1 + 48.72 x2 + 41.79 x3 + 2 x4 + x5 + 100 x6 + 3 x7
      + 3 x8 + 4 x9 + 5 x10 + 3 x11 + 50 x12 + 43.48 x13 + 43.85 x14 + x15
      + 3 x16 + 3 x17 + 2 x18 + x19 + 3 x20 + 2 x21 + x22 + 2 x23 + 4 x24
      + 10 x25 + x26 + 4 x27 + 5 x28 + 8 x29 + 2 x30 + 3 x31 + 6 x32 + 7 x33
Subject To
 N1:    x3 + x4 + x5  = 2
 N2:    x6 + x7 + x8 + x9  = 3
 N3:    x10 + x11  = 2
 N5:    x0 + x4 + x7 - x14 - x15 - x16  = 0
 N6:    x1 + x5 + x8 + x10 - x17 - x18 - x19  = 0
 N7:    x2 + x9 + x11 - x20 - x21  = 0
 N9:    x15 + x17 - x22 - x23 - x24 - x25  = 0
 N10:   x12 + x16 + x18 + x20 - x26 - x27 - x28 - x29  = 0
 N11:   x13 + x19 + x21 - x30 - x31 - x32 - x33  = 0
 N5_s:  x0 + x4 + x7 + y0 >= 7
 N6_s:  x1 + x5 + x8 + x10 + y1 >= 9
 N7_s:  x2 + x9 + x11 + y2 >= 6
 N9_s:  x15 + x17 + y3 >= 11
 N10_s: x12 + x16 + x18 + x20 + y4 >= 9
 N11_s: x13 + x19 + x21 + y5 >= 13
 N13_s: x23 + x27 + x31 + y6 >= 14
 N14_s: x24 + x28 + x32 + y7 >= 10
 N15_s: x25 + x29 + x33 + y8 >= 7
 N5_o:  x0 + x4 + x7 - z0 <= 7
 N6_o:  x1 + x5 + x8 + x10 - z1 <= 9
 N7_o:  x2 + x9 + x11 - z2 <= 6
 N9_o:  x15 + x17 - z3 <= 11
 N10_o: x12 + x16 + x18 + x20 - z4 <= 9
 N11_o: x13 + x19 + x21 - z5 <= 13
 N13_o: x23 + x27 + x31 - z6 <= 14
 N14_o: x24 + x28 + x32 - z7 <= 10
 N15_o: x25 + x29 + x33 - z8 <= 7
Bounds
 0 <= x0 <= 1000
 0 <= x1 <= 1000
 0 <= x2 <= 1000
 0 <= x3 <= 1000
 0 <= x4 <= 1000
 0 <= x5 <= 1000
 0 <= x6 <= 1000
 0 <= x7 <= 1000
 0 <= x8 <= 1000
 0 <= x9 <= 1000
 0 <= x10 <= 1000
 0 <= x11 <= 1000
 0 <= x12 <= 1000
 0 <= x13 <= 1000
 0 <= x14 <= 1000
 0 <= x15 <= 1000
 0 <= x16 <= 1000
 0 <= x17 <= 1000
 0 <= x18 <= 1000
 0 <= x19 <= 1000
 0 <= x20 <= 1000
 0 <= x21 <= 1000
 0 <= x22 <= 1
 0 <= x23 <= 1
 0 <= x24 <= 1
 0 <= x25 <= 9
 0 <= x26 <= 1
 0 <= x27 <= 3
 0 <= x28 <= 1
 0 <= x29 <= 9
 0 <= x30 <= 1
 0 <= x31 <= 1
 0 <= x32 <= 2
 0 <= x33 <= 9
 0 <= y0 <= 1000
 0 <= y1 <= 1000
 0 <= y2 <= 1000
 0 <= y3 <= 1000
 0 <= y4 <= 1000
 0 <= y5 <= 1000
 0 <= y6 <= 1000
 0 <= y7 <= 1000
 0 <= y8 <= 1000
 0 <= z0 <= 1000
 0 <= z1 <= 1000
 0 <= z2 <= 1000
 0 <= z3 <= 1000
 0 <= z4 <= 1000
 0 <= z5 <= 1000
 0 <= z6 <= 1000
 0 <= z7 <= 1000
 0 <= z8 <= 1000
End
